(set-logic ALL)
(declare-const BAV1 Bool)
(declare-const BAV2 Bool)
(declare-const BAV3 Bool)
(declare-const BAV4 Bool)
(declare-const BAV5 Bool)
(declare-const BAV6 Bool)
(declare-const x Int)
(declare-const a Int)
(declare-const y Int)
(declare-const b Int)
(declare-const y0 Int)
(declare-const b0 Int)
(declare-const y00 Int)
(declare-const b00 Int)
(assert (or false (sep (pto x a) (or false (sep (pto y b) (or false (sep (pto y0 b0) (pto y00 b00))))))))
(assert (not (or false (sep (pto x a) (not (or false (sep (pto y b) (not (or false (sep (pto y0 b0) (not (pto y00 b00))))))))))))
(assert (= BAV1 (or false (sep (pto x a) (or false (sep (pto y b) (or false (sep (pto y0 b0) (pto y00 b00)))))))))
(assert (= BAV2 (or false (sep (pto y b) (or false (sep (pto y0 b0) (pto y00 b00)))))))
(assert (= BAV3 (or false (sep (pto y0 b0) (pto y00 b00)))))
(assert (= BAV4 (or false (sep (pto x a) (not (or false (sep (pto y b) (not (or false (sep (pto y0 b0) (not (pto y00 b00))))))))))))
(assert (= BAV5 (or false (sep (pto y b) (not (or false (sep (pto y0 b0) (not (pto y00 b00)))))))))
(assert (= BAV6 (or false (sep (pto y0 b0) (not (pto y00 b00))))))
(check-sat)
(get-model)